c colouring generated by benchmark framework
p edge 500 62624
v 1 0
v 2 13
v 3 36
v 4 64
v 5 14
v 6 18
v 7 45
v 8 16
v 9 2
v 10 27
v 11 26
v 12 10
v 13 68
v 14 62
v 15 8
v 16 3
v 17 45
v 18 35
v 19 62
v 20 63
v 21 39
v 22 44
v 23 36
v 24 14
v 25 45
v 26 17
v 27 18
v 28 24
v 29 52
v 30 42
v 31 65
v 32 21
v 33 42
v 34 0
v 35 0
v 36 26
v 37 30
v 38 6
v 39 39
v 40 9
v 41 30
v 42 53
v 43 67
v 44 32
v 45 45
v 46 40
v 47 37
v 48 57
v 49 43
v 50 11
v 51 34
v 52 24
v 53 13
v 54 1
v 55 48
v 56 2
v 57 31
v 58 49
v 59 18
v 60 38
v 61 30
v 62 33
v 63 33
v 64 34
v 65 20
v 66 12
v 67 18
v 68 60
v 69 59
v 70 20
v 71 62
v 72 7
v 73 42
v 74 33
v 75 35
v 76 10
v 77 10
v 78 37
v 79 20
v 80 8
v 81 10
v 82 25
v 83 45
v 84 4
v 85 56
v 86 55
v 87 25
v 88 64
v 89 0
v 90 13
v 91 7
v 92 56
v 93 24
v 94 34
v 95 2
v 96 22
v 97 41
v 98 63
v 99 49
v 100 43
v 101 15
v 102 54
v 103 43
v 104 23
v 105 21
v 106 25
v 107 43
v 108 20
v 109 45
v 110 36
v 111 13
v 112 22
v 113 37
v 114 48
v 115 29
v 116 57
v 117 11
v 118 28
v 119 41
v 120 54
v 121 61
v 122 57
v 123 1
v 124 31
v 125 23
v 126 7
v 127 52
v 128 17
v 129 24
v 130 43
v 131 48
v 132 4
v 133 42
v 134 48
v 135 26
v 136 66
v 137 40
v 138 32
v 139 4
v 140 66
v 141 51
v 142 56
v 143 25
v 144 68
v 145 32
v 146 33
v 147 23
v 148 60
v 149 49
v 150 5
v 151 50
v 152 60
v 153 2
v 154 55
v 155 44
v 156 54
v 157 65
v 158 7
v 159 21
v 160 15
v 161 4
v 162 53
v 163 14
v 164 62
v 165 52
v 166 19
v 167 6
v 168 10
v 169 50
v 170 6
v 171 60
v 172 55
v 173 20
v 174 11
v 175 31
v 176 48
v 177 48
v 178 19
v 179 23
v 180 11
v 181 63
v 182 23
v 183 52
v 184 14
v 185 13
v 186 35
v 187 2
v 188 48
v 189 51
v 190 65
v 191 62
v 192 58
v 193 18
v 194 16
v 195 38
v 196 41
v 197 19
v 198 28
v 199 14
v 200 30
v 201 22
v 202 59
v 203 42
v 204 9
v 205 38
v 206 66
v 207 29
v 208 20
v 209 2
v 210 64
v 211 4
v 212 30
v 213 12
v 214 7
v 215 29
v 216 8
v 217 57
v 218 40
v 219 56
v 220 37
v 221 20
v 222 27
v 223 63
v 224 28
v 225 25
v 226 50
v 227 30
v 228 46
v 229 50
v 230 41
v 231 28
v 232 49
v 233 53
v 234 5
v 235 27
v 236 3
v 237 51
v 238 34
v 239 47
v 240 50
v 241 31
v 242 53
v 243 51
v 244 16
v 245 50
v 246 19
v 247 59
v 248 1
v 249 4
v 250 30
v 251 27
v 252 63
v 253 30
v 254 29
v 255 67
v 256 46
v 257 6
v 258 51
v 259 12
v 260 52
v 261 16
v 262 31
v 263 9
v 264 67
v 265 8
v 266 42
v 267 12
v 268 47
v 269 58
v 270 26
v 271 28
v 272 35
v 273 29
v 274 24
v 275 17
v 276 27
v 277 46
v 278 9
v 279 8
v 280 26
v 281 54
v 282 12
v 283 67
v 284 23
v 285 41
v 286 46
v 287 35
v 288 13
v 289 35
v 290 59
v 291 52
v 292 33
v 293 50
v 294 21
v 295 63
v 296 35
v 297 6
v 298 15
v 299 5
v 300 0
v 301 1
v 302 14
v 303 3
v 304 46
v 305 44
v 306 33
v 307 0
v 308 30
v 309 31
v 310 60
v 311 58
v 312 39
v 313 27
v 314 50
v 315 9
v 316 65
v 317 26
v 318 59
v 319 36
v 320 45
v 321 38
v 322 26
v 323 5
v 324 44
v 325 35
v 326 3
v 327 49
v 328 40
v 329 1
v 330 12
v 331 54
v 332 0
v 333 17
v 334 1
v 335 41
v 336 58
v 337 55
v 338 28
v 339 47
v 340 1
v 341 40
v 342 17
v 343 10
v 344 5
v 345 49
v 346 37
v 347 51
v 348 39
v 349 19
v 350 17
v 351 58
v 352 67
v 353 47
v 354 11
v 355 17
v 356 12
v 357 68
v 358 35
v 359 9
v 360 31
v 361 66
v 362 36
v 363 39
v 364 36
v 365 32
v 366 56
v 367 7
v 368 16
v 369 58
v 370 8
v 371 26
v 372 57
v 373 42
v 374 47
v 375 7
v 376 6
v 377 63
v 378 47
v 379 24
v 380 56
v 381 41
v 382 46
v 383 66
v 384 15
v 385 59
v 386 24
v 387 34
v 388 43
v 389 68
v 390 17
v 391 21
v 392 4
v 393 44
v 394 34
v 395 15
v 396 40
v 397 10
v 398 2
v 399 55
v 400 14
v 401 40
v 402 44
v 403 61
v 404 29
v 405 21
v 406 15
v 407 27
v 408 22
v 409 4
v 410 20
v 411 22
v 412 23
v 413 59
v 414 19
v 415 61
v 416 32
v 417 2
v 418 38
v 419 37
v 420 6
v 421 38
v 422 39
v 423 21
v 424 43
v 425 32
v 426 64
v 427 22
v 428 9
v 429 0
v 430 34
v 431 45
v 432 9
v 433 16
v 434 57
v 435 12
v 436 1
v 437 24
v 438 15
v 439 22
v 440 63
v 441 53
v 442 7
v 443 58
v 444 68
v 445 19
v 446 25
v 447 50
v 448 10
v 449 33
v 450 42
v 451 49
v 452 18
v 453 60
v 454 66
v 455 36
v 456 33
v 457 52
v 458 40
v 459 18
v 460 56
v 461 41
v 462 21
v 463 53
v 464 62
v 465 29
v 466 14
v 467 62
v 468 8
v 469 0
v 470 8
v 471 2
v 472 10
v 473 31
v 474 16
v 475 26
v 476 63
v 477 47
v 478 53
v 479 34
v 480 5
v 481 3
v 482 57
v 483 67
v 484 25
v 485 55
v 486 28
v 487 26
v 488 32
v 489 5
v 490 43
v 491 23
v 492 3
v 493 61
v 494 65
v 495 8
v 496 15
v 497 11
v 498 34
v 499 19
v 500 46
